p cnf 21 9
e 1 0
a 2 3 4 5 0
e 6 7 0
a 8 0
e 9 0
a 10 11 12 0
e 13 14 15 16 17 0
a 18 19 0
e 20 21 0
6 16 2 -4 0
16 -9 -2 12 0
16 -15 0
-6 -10 -5 -9 13 0
7 2 -13 21 16 0
-13 -14 -2 0
-18 -17 16 0
-6 -11 -15 -16 -3 0
5 -2 -11 21 0
